19,3	0,0	19,7	15,1	0,0	0,0	0,0	0,0	0,0	9,6
10,6	14,4	0,0	5,3	11,0	0,0	0,0	8,9	0,0	0,0
0,0	0,0	13,1	0,0	9,3	11,8	0,0	0,0	19,6	0,0
6,0	0,0	15,4	0,0	0,0	0,0	6,9	0,0	0,0	0,0
0,0	17,4	0,0	9,8	18,5	0,0	0,0	7,3	0,0	0,0
0,0	13,1	10,6	0,0	17,7	9,8	0,0	0,0	13,2	0,0
0,0	8,9	0,0	17,6	0,0	0,0	12,0	0,0	0,0	10,4
15,9	0,0	15,6	0,0	0,0	0,0	0,0	0,0	0,0	13,4
0,0	17,7	0,0	7,0	10,3	0,0	0,0	14,6	0,0	0,0
0,0	0,0	5,1	0,0	0,0	11,1	14,4	0,0	0,0	12,4
									
4,1	4,8	3,7	3,4	2,7	3,2	4,5	2,6	2,9	3,2
